As  P As  P As 
 1.0000000000000000
     3.5343537677357930    0.0000000000000000    0.0000000000000000
     0.0000000000000000   10.7907281249437119   -0.1111909813845452
     0.0000000000000000   -0.0402483292938430    4.3934096279689658
 As  P   As  P   As 
   1   2   2   2   1
Cartesian
  0.0000000000000000  1.2164104396949253  0.3745220455282520
  0.0000000000000000  9.5343440354782505  3.9068060174711596
  1.7671768838678965  6.6115037493580058  0.3172860821949165
  1.7671768838678965  4.1387172587406411  3.9608539212448930
  0.0000000000000000  4.2912158080414997  2.3702753902996059
  0.0000000000000000  6.4592810583982310  1.9078739597549452
  1.7671768838678965  9.6865994472352295  2.3162220116755514
  1.7671768838678965  1.0639384004439558  1.9651002051764854
